(set-info :smt-lib-version 2.6)
(set-logic QF_S)
(set-info :source |
Generated by: Hung-En Wang, Tzung-Lin Tsai, Chun-Han Lin, Fang Yu, and Jie-Hong R. Jiang
Generated on: 2019-02-28
Generator: Stranger
Application: Security analysis of string manipulating web applications
Target solver: CVC4, Norn, Z3-str2
Publication:
Hung-En Wang, Tzung-Lin Tsai, Chun-Han Lin, Fang Yu, Jie-Hong R. Jiang:
String Analysis via Automata Manipulation with Logic Circuit Representation. CAV (1) 2016: 241-260.
|)
(set-info :license "https://creativecommons.org/licenses/by/4.0/")
(set-info :category "industrial")
(set-info :status unknown)

(declare-fun sigmaStar_0 () String)
(declare-fun sigmaStar_1 () String)
(declare-fun literal_5 () String)
(declare-fun x_4 () String)
(declare-fun literal_2 () String)
(declare-fun literal_3 () String)
(declare-fun x_6 () String)
(declare-fun literal_7 () String)
(declare-fun x_8 () String)
(declare-fun x_9 () String)
(declare-fun literal_10 () String)
(declare-fun x_11 () String)
(declare-fun x_12 () String)
(declare-fun literal_13 () String)
(declare-fun x_14 () String)
(assert (= literal_5 "\u{3c}\u{74}\u{64}\u{20}\u{63}\u{6c}\u{61}\u{73}\u{73}\u{3d}\u{27}"))
(assert (= literal_2 "\u{74}\u{62}\u{6c}\u{31}"))
(assert (= literal_3 "\u{74}\u{62}\u{6c}\u{32}"))
(assert (or (= x_4 literal_2) (= x_4 literal_3)))
(assert (= x_6 (str.++ literal_5 x_4)))
(assert (= literal_7 "\u{27}\u{20}\u{73}\u{74}\u{79}\u{6c}\u{65}\u{3d}\u{27}\u{70}\u{61}\u{64}\u{64}\u{69}\u{6e}\u{67}\u{2d}\u{6c}\u{65}\u{66}\u{74}\u{3a}\u{31}\u{30}\u{70}\u{78}\u{3b}\u{70}\u{61}\u{64}\u{64}\u{69}\u{6e}\u{67}\u{2d}\u{72}\u{69}\u{67}\u{68}\u{74}\u{3a}\u{31}\u{30}\u{70}\u{78}\u{3b}\u{27}\u{3e}\u{3c}\u{73}\u{70}\u{61}\u{6e}\u{20}\u{63}\u{6c}\u{61}\u{73}\u{73}\u{3d}\u{27}\u{73}\u{6d}\u{61}\u{6c}\u{6c}\u{27}\u{3e}\u{3c}\u{61}\u{20}\u{68}\u{72}\u{65}\u{66}\u{3d}\u{27}\u{73}\u{65}\u{74}\u{74}\u{69}\u{6e}\u{67}\u{73}\u{5f}\u{6d}\u{61}\u{69}\u{6e}\u{2e}\u{70}\u{68}\u{70}"))
(assert (= x_8 (str.++ x_6 literal_7)))
(assert (= x_9 (str.++ x_8 sigmaStar_0)))
(assert (= literal_10 "\u{27}\u{3e}"))
(assert (= x_11 (str.++ x_9 literal_10)))
(assert (= x_12 (str.++ x_11 sigmaStar_1)))
(assert (= literal_13 "\u{3c}\u{2f}\u{61}\u{3e}\u{3c}\u{2f}\u{73}\u{70}\u{61}\u{6e}\u{3e}\u{3c}\u{2f}\u{74}\u{64}\u{3e}\u{5c}\u{6e}"))
(assert (= x_14 (str.++ x_12 literal_13)))
(assert (str.in_re x_14 (re.++ (re.* re.allchar) (re.++ (str.to_re "\u{5c}\u{3c}\u{53}\u{43}\u{52}\u{49}\u{50}\u{54}") (re.* re.allchar)))))
(check-sat)
(exit)
